p cnf 600 2582
1 2 3 0
4 5 6 0
7 8 9 0
10 11 12 0
13 14 15 0
16 17 18 0
19 20 21 0
22 23 24 0
25 26 27 0
28 29 30 0
31 32 33 0
34 35 36 0
37 38 39 0
40 41 42 0
43 44 45 0
46 47 48 0
49 50 51 0
52 53 54 0
55 56 57 0
58 59 60 0
61 62 63 0
64 65 66 0
67 68 69 0
70 71 72 0
73 74 75 0
76 77 78 0
79 80 81 0
82 83 84 0
85 86 87 0
88 89 90 0
91 92 93 0
94 95 96 0
97 98 99 0
100 101 102 0
103 104 105 0
106 107 108 0
109 110 111 0
112 113 114 0
115 116 117 0
118 119 120 0
121 122 123 0
124 125 126 0
127 128 129 0
130 131 132 0
133 134 135 0
136 137 138 0
139 140 141 0
142 143 144 0
145 146 147 0
148 149 150 0
151 152 153 0
154 155 156 0
157 158 159 0
160 161 162 0
163 164 165 0
166 167 168 0
169 170 171 0
172 173 174 0
175 176 177 0
178 179 180 0
181 182 183 0
184 185 186 0
187 188 189 0
190 191 192 0
193 194 195 0
196 197 198 0
199 200 201 0
202 203 204 0
205 206 207 0
208 209 210 0
211 212 213 0
214 215 216 0
217 218 219 0
220 221 222 0
223 224 225 0
226 227 228 0
229 230 231 0
232 233 234 0
235 236 237 0
238 239 240 0
241 242 243 0
244 245 246 0
247 248 249 0
250 251 252 0
253 254 255 0
256 257 258 0
259 260 261 0
262 263 264 0
265 266 267 0
268 269 270 0
271 272 273 0
274 275 276 0
277 278 279 0
280 281 282 0
283 284 285 0
286 287 288 0
289 290 291 0
292 293 294 0
295 296 297 0
298 299 300 0
301 302 303 0
304 305 306 0
307 308 309 0
310 311 312 0
313 314 315 0
316 317 318 0
319 320 321 0
322 323 324 0
325 326 327 0
328 329 330 0
331 332 333 0
334 335 336 0
337 338 339 0
340 341 342 0
343 344 345 0
346 347 348 0
349 350 351 0
352 353 354 0
355 356 357 0
358 359 360 0
361 362 363 0
364 365 366 0
367 368 369 0
370 371 372 0
373 374 375 0
376 377 378 0
379 380 381 0
382 383 384 0
385 386 387 0
388 389 390 0
391 392 393 0
394 395 396 0
397 398 399 0
400 401 402 0
403 404 405 0
406 407 408 0
409 410 411 0
412 413 414 0
415 416 417 0
418 419 420 0
421 422 423 0
424 425 426 0
427 428 429 0
430 431 432 0
433 434 435 0
436 437 438 0
439 440 441 0
442 443 444 0
445 446 447 0
448 449 450 0
451 452 453 0
454 455 456 0
457 458 459 0
460 461 462 0
463 464 465 0
466 467 468 0
469 470 471 0
472 473 474 0
475 476 477 0
478 479 480 0
481 482 483 0
484 485 486 0
487 488 489 0
490 491 492 0
493 494 495 0
496 497 498 0
499 500 501 0
502 503 504 0
505 506 507 0
508 509 510 0
511 512 513 0
514 515 516 0
517 518 519 0
520 521 522 0
523 524 525 0
526 527 528 0
529 530 531 0
532 533 534 0
535 536 537 0
538 539 540 0
541 542 543 0
544 545 546 0
547 548 549 0
550 551 552 0
553 554 555 0
556 557 558 0
559 560 561 0
562 563 564 0
565 566 567 0
568 569 570 0
571 572 573 0
574 575 576 0
577 578 579 0
580 581 582 0
583 584 585 0
586 587 588 0
589 590 591 0
592 593 594 0
595 596 597 0
598 599 600 0
-1 -2 0
-1 -3 0
-2 -3 0
-4 -5 0
-4 -6 0
-5 -6 0
-7 -8 0
-7 -9 0
-8 -9 0
-10 -11 0
-10 -12 0
-11 -12 0
-13 -14 0
-13 -15 0
-14 -15 0
-16 -17 0
-16 -18 0
-17 -18 0
-19 -20 0
-19 -21 0
-20 -21 0
-22 -23 0
-22 -24 0
-23 -24 0
-25 -26 0
-25 -27 0
-26 -27 0
-28 -29 0
-28 -30 0
-29 -30 0
-31 -32 0
-31 -33 0
-32 -33 0
-34 -35 0
-34 -36 0
-35 -36 0
-37 -38 0
-37 -39 0
-38 -39 0
-40 -41 0
-40 -42 0
-41 -42 0
-43 -44 0
-43 -45 0
-44 -45 0
-46 -47 0
-46 -48 0
-47 -48 0
-49 -50 0
-49 -51 0
-50 -51 0
-52 -53 0
-52 -54 0
-53 -54 0
-55 -56 0
-55 -57 0
-56 -57 0
-58 -59 0
-58 -60 0
-59 -60 0
-61 -62 0
-61 -63 0
-62 -63 0
-64 -65 0
-64 -66 0
-65 -66 0
-67 -68 0
-67 -69 0
-68 -69 0
-70 -71 0
-70 -72 0
-71 -72 0
-73 -74 0
-73 -75 0
-74 -75 0
-76 -77 0
-76 -78 0
-77 -78 0
-79 -80 0
-79 -81 0
-80 -81 0
-82 -83 0
-82 -84 0
-83 -84 0
-85 -86 0
-85 -87 0
-86 -87 0
-88 -89 0
-88 -90 0
-89 -90 0
-91 -92 0
-91 -93 0
-92 -93 0
-94 -95 0
-94 -96 0
-95 -96 0
-97 -98 0
-97 -99 0
-98 -99 0
-100 -101 0
-100 -102 0
-101 -102 0
-103 -104 0
-103 -105 0
-104 -105 0
-106 -107 0
-106 -108 0
-107 -108 0
-109 -110 0
-109 -111 0
-110 -111 0
-112 -113 0
-112 -114 0
-113 -114 0
-115 -116 0
-115 -117 0
-116 -117 0
-118 -119 0
-118 -120 0
-119 -120 0
-121 -122 0
-121 -123 0
-122 -123 0
-124 -125 0
-124 -126 0
-125 -126 0
-127 -128 0
-127 -129 0
-128 -129 0
-130 -131 0
-130 -132 0
-131 -132 0
-133 -134 0
-133 -135 0
-134 -135 0
-136 -137 0
-136 -138 0
-137 -138 0
-139 -140 0
-139 -141 0
-140 -141 0
-142 -143 0
-142 -144 0
-143 -144 0
-145 -146 0
-145 -147 0
-146 -147 0
-148 -149 0
-148 -150 0
-149 -150 0
-151 -152 0
-151 -153 0
-152 -153 0
-154 -155 0
-154 -156 0
-155 -156 0
-157 -158 0
-157 -159 0
-158 -159 0
-160 -161 0
-160 -162 0
-161 -162 0
-163 -164 0
-163 -165 0
-164 -165 0
-166 -167 0
-166 -168 0
-167 -168 0
-169 -170 0
-169 -171 0
-170 -171 0
-172 -173 0
-172 -174 0
-173 -174 0
-175 -176 0
-175 -177 0
-176 -177 0
-178 -179 0
-178 -180 0
-179 -180 0
-181 -182 0
-181 -183 0
-182 -183 0
-184 -185 0
-184 -186 0
-185 -186 0
-187 -188 0
-187 -189 0
-188 -189 0
-190 -191 0
-190 -192 0
-191 -192 0
-193 -194 0
-193 -195 0
-194 -195 0
-196 -197 0
-196 -198 0
-197 -198 0
-199 -200 0
-199 -201 0
-200 -201 0
-202 -203 0
-202 -204 0
-203 -204 0
-205 -206 0
-205 -207 0
-206 -207 0
-208 -209 0
-208 -210 0
-209 -210 0
-211 -212 0
-211 -213 0
-212 -213 0
-214 -215 0
-214 -216 0
-215 -216 0
-217 -218 0
-217 -219 0
-218 -219 0
-220 -221 0
-220 -222 0
-221 -222 0
-223 -224 0
-223 -225 0
-224 -225 0
-226 -227 0
-226 -228 0
-227 -228 0
-229 -230 0
-229 -231 0
-230 -231 0
-232 -233 0
-232 -234 0
-233 -234 0
-235 -236 0
-235 -237 0
-236 -237 0
-238 -239 0
-238 -240 0
-239 -240 0
-241 -242 0
-241 -243 0
-242 -243 0
-244 -245 0
-244 -246 0
-245 -246 0
-247 -248 0
-247 -249 0
-248 -249 0
-250 -251 0
-250 -252 0
-251 -252 0
-253 -254 0
-253 -255 0
-254 -255 0
-256 -257 0
-256 -258 0
-257 -258 0
-259 -260 0
-259 -261 0
-260 -261 0
-262 -263 0
-262 -264 0
-263 -264 0
-265 -266 0
-265 -267 0
-266 -267 0
-268 -269 0
-268 -270 0
-269 -270 0
-271 -272 0
-271 -273 0
-272 -273 0
-274 -275 0
-274 -276 0
-275 -276 0
-277 -278 0
-277 -279 0
-278 -279 0
-280 -281 0
-280 -282 0
-281 -282 0
-283 -284 0
-283 -285 0
-284 -285 0
-286 -287 0
-286 -288 0
-287 -288 0
-289 -290 0
-289 -291 0
-290 -291 0
-292 -293 0
-292 -294 0
-293 -294 0
-295 -296 0
-295 -297 0
-296 -297 0
-298 -299 0
-298 -300 0
-299 -300 0
-301 -302 0
-301 -303 0
-302 -303 0
-304 -305 0
-304 -306 0
-305 -306 0
-307 -308 0
-307 -309 0
-308 -309 0
-310 -311 0
-310 -312 0
-311 -312 0
-313 -314 0
-313 -315 0
-314 -315 0
-316 -317 0
-316 -318 0
-317 -318 0
-319 -320 0
-319 -321 0
-320 -321 0
-322 -323 0
-322 -324 0
-323 -324 0
-325 -326 0
-325 -327 0
-326 -327 0
-328 -329 0
-328 -330 0
-329 -330 0
-331 -332 0
-331 -333 0
-332 -333 0
-334 -335 0
-334 -336 0
-335 -336 0
-337 -338 0
-337 -339 0
-338 -339 0
-340 -341 0
-340 -342 0
-341 -342 0
-343 -344 0
-343 -345 0
-344 -345 0
-346 -347 0
-346 -348 0
-347 -348 0
-349 -350 0
-349 -351 0
-350 -351 0
-352 -353 0
-352 -354 0
-353 -354 0
-355 -356 0
-355 -357 0
-356 -357 0
-358 -359 0
-358 -360 0
-359 -360 0
-361 -362 0
-361 -363 0
-362 -363 0
-364 -365 0
-364 -366 0
-365 -366 0
-367 -368 0
-367 -369 0
-368 -369 0
-370 -371 0
-370 -372 0
-371 -372 0
-373 -374 0
-373 -375 0
-374 -375 0
-376 -377 0
-376 -378 0
-377 -378 0
-379 -380 0
-379 -381 0
-380 -381 0
-382 -383 0
-382 -384 0
-383 -384 0
-385 -386 0
-385 -387 0
-386 -387 0
-388 -389 0
-388 -390 0
-389 -390 0
-391 -392 0
-391 -393 0
-392 -393 0
-394 -395 0
-394 -396 0
-395 -396 0
-397 -398 0
-397 -399 0
-398 -399 0
-400 -401 0
-400 -402 0
-401 -402 0
-403 -404 0
-403 -405 0
-404 -405 0
-406 -407 0
-406 -408 0
-407 -408 0
-409 -410 0
-409 -411 0
-410 -411 0
-412 -413 0
-412 -414 0
-413 -414 0
-415 -416 0
-415 -417 0
-416 -417 0
-418 -419 0
-418 -420 0
-419 -420 0
-421 -422 0
-421 -423 0
-422 -423 0
-424 -425 0
-424 -426 0
-425 -426 0
-427 -428 0
-427 -429 0
-428 -429 0
-430 -431 0
-430 -432 0
-431 -432 0
-433 -434 0
-433 -435 0
-434 -435 0
-436 -437 0
-436 -438 0
-437 -438 0
-439 -440 0
-439 -441 0
-440 -441 0
-442 -443 0
-442 -444 0
-443 -444 0
-445 -446 0
-445 -447 0
-446 -447 0
-448 -449 0
-448 -450 0
-449 -450 0
-451 -452 0
-451 -453 0
-452 -453 0
-454 -455 0
-454 -456 0
-455 -456 0
-457 -458 0
-457 -459 0
-458 -459 0
-460 -461 0
-460 -462 0
-461 -462 0
-463 -464 0
-463 -465 0
-464 -465 0
-466 -467 0
-466 -468 0
-467 -468 0
-469 -470 0
-469 -471 0
-470 -471 0
-472 -473 0
-472 -474 0
-473 -474 0
-475 -476 0
-475 -477 0
-476 -477 0
-478 -479 0
-478 -480 0
-479 -480 0
-481 -482 0
-481 -483 0
-482 -483 0
-484 -485 0
-484 -486 0
-485 -486 0
-487 -488 0
-487 -489 0
-488 -489 0
-490 -491 0
-490 -492 0
-491 -492 0
-493 -494 0
-493 -495 0
-494 -495 0
-496 -497 0
-496 -498 0
-497 -498 0
-499 -500 0
-499 -501 0
-500 -501 0
-502 -503 0
-502 -504 0
-503 -504 0
-505 -506 0
-505 -507 0
-506 -507 0
-508 -509 0
-508 -510 0
-509 -510 0
-511 -512 0
-511 -513 0
-512 -513 0
-514 -515 0
-514 -516 0
-515 -516 0
-517 -518 0
-517 -519 0
-518 -519 0
-520 -521 0
-520 -522 0
-521 -522 0
-523 -524 0
-523 -525 0
-524 -525 0
-526 -527 0
-526 -528 0
-527 -528 0
-529 -530 0
-529 -531 0
-530 -531 0
-532 -533 0
-532 -534 0
-533 -534 0
-535 -536 0
-535 -537 0
-536 -537 0
-538 -539 0
-538 -540 0
-539 -540 0
-541 -542 0
-541 -543 0
-542 -543 0
-544 -545 0
-544 -546 0
-545 -546 0
-547 -548 0
-547 -549 0
-548 -549 0
-550 -551 0
-550 -552 0
-551 -552 0
-553 -554 0
-553 -555 0
-554 -555 0
-556 -557 0
-556 -558 0
-557 -558 0
-559 -560 0
-559 -561 0
-560 -561 0
-562 -563 0
-562 -564 0
-563 -564 0
-565 -566 0
-565 -567 0
-566 -567 0
-568 -569 0
-568 -570 0
-569 -570 0
-571 -572 0
-571 -573 0
-572 -573 0
-574 -575 0
-574 -576 0
-575 -576 0
-577 -578 0
-577 -579 0
-578 -579 0
-580 -581 0
-580 -582 0
-581 -582 0
-583 -584 0
-583 -585 0
-584 -585 0
-586 -587 0
-586 -588 0
-587 -588 0
-589 -590 0
-589 -591 0
-590 -591 0
-592 -593 0
-592 -594 0
-593 -594 0
-595 -596 0
-595 -597 0
-596 -597 0
-598 -599 0
-598 -600 0
-599 -600 0
-1 -103 0
-1 -403 0
-1 -409 0
-4 -91 0
-4 -187 0
-4 -355 0
-7 -223 0
-7 -244 0
-7 -349 0
-10 -256 0
-10 -298 0
-10 -508 0
-13 -109 0
-13 -202 0
-13 -373 0
-16 -205 0
-16 -223 0
-16 -586 0
-19 -73 0
-19 -373 0
-19 -391 0
-22 -286 0
-22 -298 0
-22 -409 0
-25 -403 0
-25 -562 0
-25 -568 0
-28 -106 0
-28 -118 0
-28 -349 0
-31 -142 0
-31 -187 0
-31 -382 0
-34 -232 0
-34 -280 0
-34 -553 0
-37 -220 0
-37 -454 0
-37 -583 0
-40 -73 0
-40 -589 0
-40 -595 0
-43 -271 0
-43 -319 0
-43 -331 0
-46 -145 0
-46 -205 0
-46 -382 0
-49 -91 0
-49 -427 0
-49 -529 0
-52 -70 0
-52 -157 0
-52 -571 0
-55 -118 0
-55 -121 0
-55 -367 0
-58 -334 0
-58 -349 0
-58 -535 0
-61 -100 0
-61 -199 0
-61 -574 0
-64 -208 0
-64 -475 0
-64 -574 0
-67 -82 0
-67 -223 0
-67 -241 0
-70 -52 0
-70 -103 0
-70 -502 0
-73 -19 0
-73 -40 0
-73 -514 0
-76 -262 0
-76 -475 0
-79 -343 0
-79 -478 0
-79 -487 0
-82 -67 0
-82 -178 0
-82 -520 0
-85 -280 0
-85 -454 0
-85 -463 0
-88 -151 0
-88 -295 0
-88 -298 0
-91 -4 0
-91 -49 0
-91 -226 0
-94 -109 0
-94 -133 0
-94 -466 0
-97 -127 0
-97 -310 0
-97 -568 0
-100 -61 0
-100 -370 0
-100 -382 0
-103 -1 0
-103 -70 0
-103 -370 0
-106 -28 0
-106 -190 0
-106 -256 0
-109 -13 0
-109 -94 0
-109 -472 0
-112 -139 0
-112 -190 0
-112 -394 0
-115 -352 0
-115 -373 0
-115 -580 0
-118 -28 0
-118 -55 0
-118 -130 0
-121 -55 0
-121 -337 0
-121 -415 0
-124 -157 0
-124 -427 0
-124 -598 0
-127 -97 0
-127 -322 0
-127 -466 0
-130 -118 0
-130 -232 0
-130 -439 0
-133 -94 0
-133 -388 0
-133 -589 0
-136 -265 0
-136 -472 0
-136 -508 0
-139 -112 0
-139 -484 0
-139 -598 0
-142 -31 0
-142 -181 0
-142 -529 0
-145 -46 0
-145 -310 0
-145 -502 0
-148 -184 0
-148 -442 0
-148 -535 0
-151 -88 0
-151 -166 0
-151 -484 0
-154 -160 0
-154 -277 0
-154 -496 0
-157 -52 0
-157 -124 0
-157 -562 0
-160 -154 0
-160 -421 0
-160 -595 0
-163 -358 0
-163 -481 0
-163 -535 0
-166 -151 0
-166 -175 0
-166 -595 0
-169 -175 0
-169 -433 0
-169 -589 0
-172 -175 0
-172 -280 0
-172 -502 0
-175 -166 0
-175 -169 0
-175 -172 0
-178 -82 0
-178 -220 0
-178 -340 0
-181 -142 0
-181 -460 0
-181 -538 0
-184 -148 0
-184 -430 0
-184 -487 0
-187 -4 0
-187 -31 0
-187 -271 0
-190 -106 0
-190 -112 0
-190 -316 0
-193 -265 0
-193 -418 0
-193 -460 0
-196 -235 0
-196 -505 0
-196 -583 0
-199 -61 0
-199 -400 0
-199 -568 0
-202 -13 0
-202 -316 0
-202 -370 0
-205 -16 0
-205 -46 0
-205 -517 0
-208 -64 0
-208 -421 0
-208 -544 0
-211 -235 0
-211 -268 0
-211 -346 0
-214 -328 0
-214 -346 0
-214 -493 0
-217 -397 0
-217 -472 0
-217 -484 0
-220 -37 0
-220 -178 0
-220 -529 0
-223 -7 0
-223 -16 0
-223 -67 0
-226 -91 0
-226 -232 0
-226 -289 0
-229 -418 0
-229 -511 0
-229 -520 0
-232 -34 0
-232 -130 0
-232 -226 0
-235 -196 0
-235 -211 0
-235 -538 0
-238 -334 0
-238 -520 0
-238 -598 0
-241 -67 0
-241 -253 0
-241 -409 0
-244 -7 0
-244 -265 0
-244 -334 0
-247 -469 0
-247 -538 0
-247 -550 0
-250 -436 0
-250 -466 0
-250 -511 0
-253 -241 0
-253 -313 0
-253 -418 0
-256 -10 0
-256 -106 0
-256 -496 0
-259 -358 0
-259 -448 0
-259 -487 0
-262 -76 0
-262 -289 0
-262 -499 0
-265 -136 0
-265 -193 0
-265 -244 0
-268 -211 0
-268 -526 0
-268 -583 0
-271 -43 0
-271 -187 0
-271 -337 0
-274 -337 0
-274 -367 0
-274 -394 0
-277 -154 0
-277 -325 0
-277 -541 0
-280 -34 0
-280 -85 0
-280 -172 0
-283 -295 0
-283 -460 0
-283 -556 0
-286 -22 0
-286 -304 0
-286 -463 0
-289 -226 0
-289 -262 0
-289 -574 0
-292 -385 0
-292 -481 0
-292 -490 0
-295 -88 0
-295 -283 0
-295 -427 0
-298 -10 0
-298 -22 0
-298 -88 0
-301 -325 0
-301 -550 0
-301 -559 0
-304 -286 0
-304 -448 0
-304 -496 0
-307 -415 0
-307 -436 0
-307 -463 0
-310 -97 0
-310 -145 0
-310 -397 0
-313 -253 0
-313 -448 0
-313 -490 0
-316 -190 0
-316 -202 0
-316 -523 0
-319 -43 0
-319 -532 0
-319 -562 0
-322 -127 0
-322 -355 0
-322 -469 0
-325 -277 0
-325 -301 0
-325 -406 0
-328 -214 0
-328 -436 0
-328 -442 0
-331 -43 0
-331 -421 0
-331 -445 0
-334 -58 0
-334 -238 0
-334 -244 0
-337 -121 0
-337 -271 0
-337 -274 0
-340 -178 0
-340 -343 0
-340 -361 0
-343 -79 0
-343 -340 0
-343 -412 0
-346 -211 0
-346 -214 0
-346 -553 0
-349 -7 0
-349 -28 0
-349 -58 0
-352 -115 0
-352 -556 0
-352 -565 0
-355 -4 0
-355 -322 0
-355 -412 0
-358 -163 0
-358 -259 0
-358 -508 0
-361 -340 0
-361 -454 0
-361 -514 0
-364 -379 0
-364 -406 0
-364 -544 0
-367 -55 0
-367 -274 0
-367 -586 0
-370 -100 0
-370 -103 0
-370 -202 0
-373 -13 0
-373 -19 0
-373 -115 0
-376 -400 0
-376 -430 0
-376 -580 0
-379 -364 0
-379 -505 0
-379 -580 0
-382 -31 0
-382 -46 0
-382 -100 0
-385 -292 0
-385 -457 0
-385 -490 0
-388 -133 0
-388 -499 0
-388 -559 0
-391 -19 0
-391 -397 0
-391 -481 0
-394 -112 0
-394 -274 0
-394 -493 0
-397 -217 0
-397 -310 0
-397 -391 0
-400 -199 0
-400 -376 0
-400 -493 0
-403 -1 0
-403 -25 0
-403 -430 0
-406 -325 0
-406 -364 0
-406 -439 0
-409 -1 0
-409 -22 0
-409 -241 0
-412 -343 0
-412 -355 0
-412 -532 0
-415 -121 0
-415 -307 0
-415 -442 0
-418 -193 0
-418 -229 0
-418 -253 0
-421 -160 0
-421 -208 0
-421 -331 0
-424 -469 0
-424 -505 0
-424 -592 0
-427 -49 0
-427 -124 0
-427 -295 0
-430 -184 0
-430 -376 0
-430 -403 0
-433 -169 0
-433 -445 0
-433 -556 0
-436 -250 0
-436 -307 0
-436 -328 0
-439 -130 0
-439 -406 0
-439 -451 0
-442 -148 0
-442 -328 0
-442 -415 0
-445 -331 0
-445 -433 0
-445 -523 0
-448 -259 0
-448 -304 0
-448 -313 0
-451 -439 0
-451 -514 0
-451 -586 0
-454 -37 0
-454 -85 0
-454 -361 0
-457 -385 0
-457 -571 0
-457 -592 0
-460 -181 0
-460 -193 0
-460 -283 0
-463 -85 0
-463 -286 0
-463 -307 0
-466 -94 0
-466 -127 0
-466 -250 0
-469 -247 0
-469 -322 0
-469 -424 0
-472 -109 0
-472 -136 0
-472 -217 0
-475 -64 0
-475 -76 0
-478 -79 0
-478 -526 0
-478 -553 0
-481 -163 0
-481 -292 0
-481 -391 0
-484 -139 0
-484 -151 0
-484 -217 0
-487 -79 0
-487 -184 0
-487 -259 0
-490 -292 0
-490 -313 0
-490 -385 0
-493 -214 0
-493 -394 0
-493 -400 0
-496 -154 0
-496 -256 0
-496 -304 0
-499 -262 0
-499 -388 0
-499 -523 0
-502 -70 0
-502 -145 0
-502 -172 0
-505 -196 0
-505 -379 0
-505 -424 0
-508 -10 0
-508 -136 0
-508 -358 0
-511 -229 0
-511 -250 0
-511 -550 0
-514 -73 0
-514 -361 0
-514 -451 0
-517 -205 0
-517 -526 0
-517 -532 0
-520 -82 0
-520 -229 0
-520 -238 0
-523 -316 0
-523 -445 0
-523 -499 0
-526 -268 0
-526 -478 0
-526 -517 0
-529 -49 0
-529 -142 0
-529 -220 0
-532 -319 0
-532 -412 0
-532 -517 0
-535 -58 0
-535 -148 0
-535 -163 0
-538 -181 0
-538 -235 0
-538 -247 0
-541 -277 0
-541 -577 0
-541 -592 0
-544 -208 0
-544 -364 0
-544 -571 0
-547 -559 0
-547 -565 0
-550 -247 0
-550 -301 0
-550 -511 0
-553 -34 0
-553 -346 0
-553 -478 0
-556 -283 0
-556 -352 0
-556 -433 0
-559 -301 0
-559 -388 0
-559 -547 0
-562 -25 0
-562 -157 0
-562 -319 0
-565 -352 0
-565 -547 0
-568 -25 0
-568 -97 0
-568 -199 0
-571 -52 0
-571 -457 0
-571 -544 0
-574 -61 0
-574 -64 0
-574 -289 0
-577 -541 0
-580 -115 0
-580 -376 0
-580 -379 0
-583 -37 0
-583 -196 0
-583 -268 0
-586 -16 0
-586 -367 0
-586 -451 0
-589 -40 0
-589 -133 0
-589 -169 0
-592 -424 0
-592 -457 0
-592 -541 0
-595 -40 0
-595 -160 0
-595 -166 0
-598 -124 0
-598 -139 0
-598 -238 0
-2 -104 0
-2 -404 0
-2 -410 0
-5 -92 0
-5 -188 0
-5 -356 0
-8 -224 0
-8 -245 0
-8 -350 0
-11 -257 0
-11 -299 0
-11 -509 0
-14 -110 0
-14 -203 0
-14 -374 0
-17 -206 0
-17 -224 0
-17 -587 0
-20 -74 0
-20 -374 0
-20 -392 0
-23 -287 0
-23 -299 0
-23 -410 0
-26 -404 0
-26 -563 0
-26 -569 0
-29 -107 0
-29 -119 0
-29 -350 0
-32 -143 0
-32 -188 0
-32 -383 0
-35 -233 0
-35 -281 0
-35 -554 0
-38 -221 0
-38 -455 0
-38 -584 0
-41 -74 0
-41 -590 0
-41 -596 0
-44 -272 0
-44 -320 0
-44 -332 0
-47 -146 0
-47 -206 0
-47 -383 0
-50 -92 0
-50 -428 0
-50 -530 0
-53 -71 0
-53 -158 0
-53 -572 0
-56 -119 0
-56 -122 0
-56 -368 0
-59 -335 0
-59 -350 0
-59 -536 0
-62 -101 0
-62 -200 0
-62 -575 0
-65 -209 0
-65 -476 0
-65 -575 0
-68 -83 0
-68 -224 0
-68 -242 0
-71 -53 0
-71 -104 0
-71 -503 0
-74 -20 0
-74 -41 0
-74 -515 0
-77 -263 0
-77 -476 0
-80 -344 0
-80 -479 0
-80 -488 0
-83 -68 0
-83 -179 0
-83 -521 0
-86 -281 0
-86 -455 0
-86 -464 0
-89 -152 0
-89 -296 0
-89 -299 0
-92 -5 0
-92 -50 0
-92 -227 0
-95 -110 0
-95 -134 0
-95 -467 0
-98 -128 0
-98 -311 0
-98 -569 0
-101 -62 0
-101 -371 0
-101 -383 0
-104 -2 0
-104 -71 0
-104 -371 0
-107 -29 0
-107 -191 0
-107 -257 0
-110 -14 0
-110 -95 0
-110 -473 0
-113 -140 0
-113 -191 0
-113 -395 0
-116 -353 0
-116 -374 0
-116 -581 0
-119 -29 0
-119 -56 0
-119 -131 0
-122 -56 0
-122 -338 0
-122 -416 0
-125 -158 0
-125 -428 0
-125 -599 0
-128 -98 0
-128 -323 0
-128 -467 0
-131 -119 0
-131 -233 0
-131 -440 0
-134 -95 0
-134 -389 0
-134 -590 0
-137 -266 0
-137 -473 0
-137 -509 0
-140 -113 0
-140 -485 0
-140 -599 0
-143 -32 0
-143 -182 0
-143 -530 0
-146 -47 0
-146 -311 0
-146 -503 0
-149 -185 0
-149 -443 0
-149 -536 0
-152 -89 0
-152 -167 0
-152 -485 0
-155 -161 0
-155 -278 0
-155 -497 0
-158 -53 0
-158 -125 0
-158 -563 0
-161 -155 0
-161 -422 0
-161 -596 0
-164 -359 0
-164 -482 0
-164 -536 0
-167 -152 0
-167 -176 0
-167 -596 0
-170 -176 0
-170 -434 0
-170 -590 0
-173 -176 0
-173 -281 0
-173 -503 0
-176 -167 0
-176 -170 0
-176 -173 0
-179 -83 0
-179 -221 0
-179 -341 0
-182 -143 0
-182 -461 0
-182 -539 0
-185 -149 0
-185 -431 0
-185 -488 0
-188 -5 0
-188 -32 0
-188 -272 0
-191 -107 0
-191 -113 0
-191 -317 0
-194 -266 0
-194 -419 0
-194 -461 0
-197 -236 0
-197 -506 0
-197 -584 0
-200 -62 0
-200 -401 0
-200 -569 0
-203 -14 0
-203 -317 0
-203 -371 0
-206 -17 0
-206 -47 0
-206 -518 0
-209 -65 0
-209 -422 0
-209 -545 0
-212 -236 0
-212 -269 0
-212 -347 0
-215 -329 0
-215 -347 0
-215 -494 0
-218 -398 0
-218 -473 0
-218 -485 0
-221 -38 0
-221 -179 0
-221 -530 0
-224 -8 0
-224 -17 0
-224 -68 0
-227 -92 0
-227 -233 0
-227 -290 0
-230 -419 0
-230 -512 0
-230 -521 0
-233 -35 0
-233 -131 0
-233 -227 0
-236 -197 0
-236 -212 0
-236 -539 0
-239 -335 0
-239 -521 0
-239 -599 0
-242 -68 0
-242 -254 0
-242 -410 0
-245 -8 0
-245 -266 0
-245 -335 0
-248 -470 0
-248 -539 0
-248 -551 0
-251 -437 0
-251 -467 0
-251 -512 0
-254 -242 0
-254 -314 0
-254 -419 0
-257 -11 0
-257 -107 0
-257 -497 0
-260 -359 0
-260 -449 0
-260 -488 0
-263 -77 0
-263 -290 0
-263 -500 0
-266 -137 0
-266 -194 0
-266 -245 0
-269 -212 0
-269 -527 0
-269 -584 0
-272 -44 0
-272 -188 0
-272 -338 0
-275 -338 0
-275 -368 0
-275 -395 0
-278 -155 0
-278 -326 0
-278 -542 0
-281 -35 0
-281 -86 0
-281 -173 0
-284 -296 0
-284 -461 0
-284 -557 0
-287 -23 0
-287 -305 0
-287 -464 0
-290 -227 0
-290 -263 0
-290 -575 0
-293 -386 0
-293 -482 0
-293 -491 0
-296 -89 0
-296 -284 0
-296 -428 0
-299 -11 0
-299 -23 0
-299 -89 0
-302 -326 0
-302 -551 0
-302 -560 0
-305 -287 0
-305 -449 0
-305 -497 0
-308 -416 0
-308 -437 0
-308 -464 0
-311 -98 0
-311 -146 0
-311 -398 0
-314 -254 0
-314 -449 0
-314 -491 0
-317 -191 0
-317 -203 0
-317 -524 0
-320 -44 0
-320 -533 0
-320 -563 0
-323 -128 0
-323 -356 0
-323 -470 0
-326 -278 0
-326 -302 0
-326 -407 0
-329 -215 0
-329 -437 0
-329 -443 0
-332 -44 0
-332 -422 0
-332 -446 0
-335 -59 0
-335 -239 0
-335 -245 0
-338 -122 0
-338 -272 0
-338 -275 0
-341 -179 0
-341 -344 0
-341 -362 0
-344 -80 0
-344 -341 0
-344 -413 0
-347 -212 0
-347 -215 0
-347 -554 0
-350 -8 0
-350 -29 0
-350 -59 0
-353 -116 0
-353 -557 0
-353 -566 0
-356 -5 0
-356 -323 0
-356 -413 0
-359 -164 0
-359 -260 0
-359 -509 0
-362 -341 0
-362 -455 0
-362 -515 0
-365 -380 0
-365 -407 0
-365 -545 0
-368 -56 0
-368 -275 0
-368 -587 0
-371 -101 0
-371 -104 0
-371 -203 0
-374 -14 0
-374 -20 0
-374 -116 0
-377 -401 0
-377 -431 0
-377 -581 0
-380 -365 0
-380 -506 0
-380 -581 0
-383 -32 0
-383 -47 0
-383 -101 0
-386 -293 0
-386 -458 0
-386 -491 0
-389 -134 0
-389 -500 0
-389 -560 0
-392 -20 0
-392 -398 0
-392 -482 0
-395 -113 0
-395 -275 0
-395 -494 0
-398 -218 0
-398 -311 0
-398 -392 0
-401 -200 0
-401 -377 0
-401 -494 0
-404 -2 0
-404 -26 0
-404 -431 0
-407 -326 0
-407 -365 0
-407 -440 0
-410 -2 0
-410 -23 0
-410 -242 0
-413 -344 0
-413 -356 0
-413 -533 0
-416 -122 0
-416 -308 0
-416 -443 0
-419 -194 0
-419 -230 0
-419 -254 0
-422 -161 0
-422 -209 0
-422 -332 0
-425 -470 0
-425 -506 0
-425 -593 0
-428 -50 0
-428 -125 0
-428 -296 0
-431 -185 0
-431 -377 0
-431 -404 0
-434 -170 0
-434 -446 0
-434 -557 0
-437 -251 0
-437 -308 0
-437 -329 0
-440 -131 0
-440 -407 0
-440 -452 0
-443 -149 0
-443 -329 0
-443 -416 0
-446 -332 0
-446 -434 0
-446 -524 0
-449 -260 0
-449 -305 0
-449 -314 0
-452 -440 0
-452 -515 0
-452 -587 0
-455 -38 0
-455 -86 0
-455 -362 0
-458 -386 0
-458 -572 0
-458 -593 0
-461 -182 0
-461 -194 0
-461 -284 0
-464 -86 0
-464 -287 0
-464 -308 0
-467 -95 0
-467 -128 0
-467 -251 0
-470 -248 0
-470 -323 0
-470 -425 0
-473 -110 0
-473 -137 0
-473 -218 0
-476 -65 0
-476 -77 0
-479 -80 0
-479 -527 0
-479 -554 0
-482 -164 0
-482 -293 0
-482 -392 0
-485 -140 0
-485 -152 0
-485 -218 0
-488 -80 0
-488 -185 0
-488 -260 0
-491 -293 0
-491 -314 0
-491 -386 0
-494 -215 0
-494 -395 0
-494 -401 0
-497 -155 0
-497 -257 0
-497 -305 0
-500 -263 0
-500 -389 0
-500 -524 0
-503 -71 0
-503 -146 0
-503 -173 0
-506 -197 0
-506 -380 0
-506 -425 0
-509 -11 0
-509 -137 0
-509 -359 0
-512 -230 0
-512 -251 0
-512 -551 0
-515 -74 0
-515 -362 0
-515 -452 0
-518 -206 0
-518 -527 0
-518 -533 0
-521 -83 0
-521 -230 0
-521 -239 0
-524 -317 0
-524 -446 0
-524 -500 0
-527 -269 0
-527 -479 0
-527 -518 0
-530 -50 0
-530 -143 0
-530 -221 0
-533 -320 0
-533 -413 0
-533 -518 0
-536 -59 0
-536 -149 0
-536 -164 0
-539 -182 0
-539 -236 0
-539 -248 0
-542 -278 0
-542 -578 0
-542 -593 0
-545 -209 0
-545 -365 0
-545 -572 0
-548 -560 0
-548 -566 0
-551 -248 0
-551 -302 0
-551 -512 0
-554 -35 0
-554 -347 0
-554 -479 0
-557 -284 0
-557 -353 0
-557 -434 0
-560 -302 0
-560 -389 0
-560 -548 0
-563 -26 0
-563 -158 0
-563 -320 0
-566 -353 0
-566 -548 0
-569 -26 0
-569 -98 0
-569 -200 0
-572 -53 0
-572 -458 0
-572 -545 0
-575 -62 0
-575 -65 0
-575 -290 0
-578 -542 0
-581 -116 0
-581 -377 0
-581 -380 0
-584 -38 0
-584 -197 0
-584 -269 0
-587 -17 0
-587 -368 0
-587 -452 0
-590 -41 0
-590 -134 0
-590 -170 0
-593 -425 0
-593 -458 0
-593 -542 0
-596 -41 0
-596 -161 0
-596 -167 0
-599 -125 0
-599 -140 0
-599 -239 0
-3 -105 0
-3 -405 0
-3 -411 0
-6 -93 0
-6 -189 0
-6 -357 0
-9 -225 0
-9 -246 0
-9 -351 0
-12 -258 0
-12 -300 0
-12 -510 0
-15 -111 0
-15 -204 0
-15 -375 0
-18 -207 0
-18 -225 0
-18 -588 0
-21 -75 0
-21 -375 0
-21 -393 0
-24 -288 0
-24 -300 0
-24 -411 0
-27 -405 0
-27 -564 0
-27 -570 0
-30 -108 0
-30 -120 0
-30 -351 0
-33 -144 0
-33 -189 0
-33 -384 0
-36 -234 0
-36 -282 0
-36 -555 0
-39 -222 0
-39 -456 0
-39 -585 0
-42 -75 0
-42 -591 0
-42 -597 0
-45 -273 0
-45 -321 0
-45 -333 0
-48 -147 0
-48 -207 0
-48 -384 0
-51 -93 0
-51 -429 0
-51 -531 0
-54 -72 0
-54 -159 0
-54 -573 0
-57 -120 0
-57 -123 0
-57 -369 0
-60 -336 0
-60 -351 0
-60 -537 0
-63 -102 0
-63 -201 0
-63 -576 0
-66 -210 0
-66 -477 0
-66 -576 0
-69 -84 0
-69 -225 0
-69 -243 0
-72 -54 0
-72 -105 0
-72 -504 0
-75 -21 0
-75 -42 0
-75 -516 0
-78 -264 0
-78 -477 0
-81 -345 0
-81 -480 0
-81 -489 0
-84 -69 0
-84 -180 0
-84 -522 0
-87 -282 0
-87 -456 0
-87 -465 0
-90 -153 0
-90 -297 0
-90 -300 0
-93 -6 0
-93 -51 0
-93 -228 0
-96 -111 0
-96 -135 0
-96 -468 0
-99 -129 0
-99 -312 0
-99 -570 0
-102 -63 0
-102 -372 0
-102 -384 0
-105 -3 0
-105 -72 0
-105 -372 0
-108 -30 0
-108 -192 0
-108 -258 0
-111 -15 0
-111 -96 0
-111 -474 0
-114 -141 0
-114 -192 0
-114 -396 0
-117 -354 0
-117 -375 0
-117 -582 0
-120 -30 0
-120 -57 0
-120 -132 0
-123 -57 0
-123 -339 0
-123 -417 0
-126 -159 0
-126 -429 0
-126 -600 0
-129 -99 0
-129 -324 0
-129 -468 0
-132 -120 0
-132 -234 0
-132 -441 0
-135 -96 0
-135 -390 0
-135 -591 0
-138 -267 0
-138 -474 0
-138 -510 0
-141 -114 0
-141 -486 0
-141 -600 0
-144 -33 0
-144 -183 0
-144 -531 0
-147 -48 0
-147 -312 0
-147 -504 0
-150 -186 0
-150 -444 0
-150 -537 0
-153 -90 0
-153 -168 0
-153 -486 0
-156 -162 0
-156 -279 0
-156 -498 0
-159 -54 0
-159 -126 0
-159 -564 0
-162 -156 0
-162 -423 0
-162 -597 0
-165 -360 0
-165 -483 0
-165 -537 0
-168 -153 0
-168 -177 0
-168 -597 0
-171 -177 0
-171 -435 0
-171 -591 0
-174 -177 0
-174 -282 0
-174 -504 0
-177 -168 0
-177 -171 0
-177 -174 0
-180 -84 0
-180 -222 0
-180 -342 0
-183 -144 0
-183 -462 0
-183 -540 0
-186 -150 0
-186 -432 0
-186 -489 0
-189 -6 0
-189 -33 0
-189 -273 0
-192 -108 0
-192 -114 0
-192 -318 0
-195 -267 0
-195 -420 0
-195 -462 0
-198 -237 0
-198 -507 0
-198 -585 0
-201 -63 0
-201 -402 0
-201 -570 0
-204 -15 0
-204 -318 0
-204 -372 0
-207 -18 0
-207 -48 0
-207 -519 0
-210 -66 0
-210 -423 0
-210 -546 0
-213 -237 0
-213 -270 0
-213 -348 0
-216 -330 0
-216 -348 0
-216 -495 0
-219 -399 0
-219 -474 0
-219 -486 0
-222 -39 0
-222 -180 0
-222 -531 0
-225 -9 0
-225 -18 0
-225 -69 0
-228 -93 0
-228 -234 0
-228 -291 0
-231 -420 0
-231 -513 0
-231 -522 0
-234 -36 0
-234 -132 0
-234 -228 0
-237 -198 0
-237 -213 0
-237 -540 0
-240 -336 0
-240 -522 0
-240 -600 0
-243 -69 0
-243 -255 0
-243 -411 0
-246 -9 0
-246 -267 0
-246 -336 0
-249 -471 0
-249 -540 0
-249 -552 0
-252 -438 0
-252 -468 0
-252 -513 0
-255 -243 0
-255 -315 0
-255 -420 0
-258 -12 0
-258 -108 0
-258 -498 0
-261 -360 0
-261 -450 0
-261 -489 0
-264 -78 0
-264 -291 0
-264 -501 0
-267 -138 0
-267 -195 0
-267 -246 0
-270 -213 0
-270 -528 0
-270 -585 0
-273 -45 0
-273 -189 0
-273 -339 0
-276 -339 0
-276 -369 0
-276 -396 0
-279 -156 0
-279 -327 0
-279 -543 0
-282 -36 0
-282 -87 0
-282 -174 0
-285 -297 0
-285 -462 0
-285 -558 0
-288 -24 0
-288 -306 0
-288 -465 0
-291 -228 0
-291 -264 0
-291 -576 0
-294 -387 0
-294 -483 0
-294 -492 0
-297 -90 0
-297 -285 0
-297 -429 0
-300 -12 0
-300 -24 0
-300 -90 0
-303 -327 0
-303 -552 0
-303 -561 0
-306 -288 0
-306 -450 0
-306 -498 0
-309 -417 0
-309 -438 0
-309 -465 0
-312 -99 0
-312 -147 0
-312 -399 0
-315 -255 0
-315 -450 0
-315 -492 0
-318 -192 0
-318 -204 0
-318 -525 0
-321 -45 0
-321 -534 0
-321 -564 0
-324 -129 0
-324 -357 0
-324 -471 0
-327 -279 0
-327 -303 0
-327 -408 0
-330 -216 0
-330 -438 0
-330 -444 0
-333 -45 0
-333 -423 0
-333 -447 0
-336 -60 0
-336 -240 0
-336 -246 0
-339 -123 0
-339 -273 0
-339 -276 0
-342 -180 0
-342 -345 0
-342 -363 0
-345 -81 0
-345 -342 0
-345 -414 0
-348 -213 0
-348 -216 0
-348 -555 0
-351 -9 0
-351 -30 0
-351 -60 0
-354 -117 0
-354 -558 0
-354 -567 0
-357 -6 0
-357 -324 0
-357 -414 0
-360 -165 0
-360 -261 0
-360 -510 0
-363 -342 0
-363 -456 0
-363 -516 0
-366 -381 0
-366 -408 0
-366 -546 0
-369 -57 0
-369 -276 0
-369 -588 0
-372 -102 0
-372 -105 0
-372 -204 0
-375 -15 0
-375 -21 0
-375 -117 0
-378 -402 0
-378 -432 0
-378 -582 0
-381 -366 0
-381 -507 0
-381 -582 0
-384 -33 0
-384 -48 0
-384 -102 0
-387 -294 0
-387 -459 0
-387 -492 0
-390 -135 0
-390 -501 0
-390 -561 0
-393 -21 0
-393 -399 0
-393 -483 0
-396 -114 0
-396 -276 0
-396 -495 0
-399 -219 0
-399 -312 0
-399 -393 0
-402 -201 0
-402 -378 0
-402 -495 0
-405 -3 0
-405 -27 0
-405 -432 0
-408 -327 0
-408 -366 0
-408 -441 0
-411 -3 0
-411 -24 0
-411 -243 0
-414 -345 0
-414 -357 0
-414 -534 0
-417 -123 0
-417 -309 0
-417 -444 0
-420 -195 0
-420 -231 0
-420 -255 0
-423 -162 0
-423 -210 0
-423 -333 0
-426 -471 0
-426 -507 0
-426 -594 0
-429 -51 0
-429 -126 0
-429 -297 0
-432 -186 0
-432 -378 0
-432 -405 0
-435 -171 0
-435 -447 0
-435 -558 0
-438 -252 0
-438 -309 0
-438 -330 0
-441 -132 0
-441 -408 0
-441 -453 0
-444 -150 0
-444 -330 0
-444 -417 0
-447 -333 0
-447 -435 0
-447 -525 0
-450 -261 0
-450 -306 0
-450 -315 0
-453 -441 0
-453 -516 0
-453 -588 0
-456 -39 0
-456 -87 0
-456 -363 0
-459 -387 0
-459 -573 0
-459 -594 0
-462 -183 0
-462 -195 0
-462 -285 0
-465 -87 0
-465 -288 0
-465 -309 0
-468 -96 0
-468 -129 0
-468 -252 0
-471 -249 0
-471 -324 0
-471 -426 0
-474 -111 0
-474 -138 0
-474 -219 0
-477 -66 0
-477 -78 0
-480 -81 0
-480 -528 0
-480 -555 0
-483 -165 0
-483 -294 0
-483 -393 0
-486 -141 0
-486 -153 0
-486 -219 0
-489 -81 0
-489 -186 0
-489 -261 0
-492 -294 0
-492 -315 0
-492 -387 0
-495 -216 0
-495 -396 0
-495 -402 0
-498 -156 0
-498 -258 0
-498 -306 0
-501 -264 0
-501 -390 0
-501 -525 0
-504 -72 0
-504 -147 0
-504 -174 0
-507 -198 0
-507 -381 0
-507 -426 0
-510 -12 0
-510 -138 0
-510 -360 0
-513 -231 0
-513 -252 0
-513 -552 0
-516 -75 0
-516 -363 0
-516 -453 0
-519 -207 0
-519 -528 0
-519 -534 0
-522 -84 0
-522 -231 0
-522 -240 0
-525 -318 0
-525 -447 0
-525 -501 0
-528 -270 0
-528 -480 0
-528 -519 0
-531 -51 0
-531 -144 0
-531 -222 0
-534 -321 0
-534 -414 0
-534 -519 0
-537 -60 0
-537 -150 0
-537 -165 0
-540 -183 0
-540 -237 0
-540 -249 0
-543 -279 0
-543 -579 0
-543 -594 0
-546 -210 0
-546 -366 0
-546 -573 0
-549 -561 0
-549 -567 0
-552 -249 0
-552 -303 0
-552 -513 0
-555 -36 0
-555 -348 0
-555 -480 0
-558 -285 0
-558 -354 0
-558 -435 0
-561 -303 0
-561 -390 0
-561 -549 0
-564 -27 0
-564 -159 0
-564 -321 0
-567 -354 0
-567 -549 0
-570 -27 0
-570 -99 0
-570 -201 0
-573 -54 0
-573 -459 0
-573 -546 0
-576 -63 0
-576 -66 0
-576 -291 0
-579 -543 0
-582 -117 0
-582 -378 0
-582 -381 0
-585 -39 0
-585 -198 0
-585 -270 0
-588 -18 0
-588 -369 0
-588 -453 0
-591 -42 0
-591 -135 0
-591 -171 0
-594 -426 0
-594 -459 0
-594 -543 0
-597 -42 0
-597 -162 0
-597 -168 0
-600 -126 0
-600 -141 0
-600 -240 0
